examples/factorize32.smt
(set-logic QF_BV)
(set-info :smt-lib-version 2.0)

(declare-fun a () (_ BitVec 32))
(declare-fun b () (_ BitVec 32))

(assert (not(= a #x00000001)))
(assert (not(= b #x00000001)))

; 18979*19421
(assert (= (bvmul_no_overflow a b) #x15f84137))

;(check-sat)
;(get-model)
;(count-models)
(get-all-models)

